 Code  1731
 Dimension, Fixed Cost
   100        3000
 Facility, Client, Transportation Cost
     1       17           1
     1       23           2
     1       29           0
     1       35           3
     1       37           1
     1       42           2
     1       44           4
     1       63           1
     1       74           3
     1       81           0
     2       12           4
     2       33           1
     2       35           0
     2       36           3
     2       37           4
     2       47           1
     2       53           3
     2       61           2
     2       75           3
     2       77           0
     3       13           3
     3       18           2
     3       33           3
     3       44           2
     3       55           2
     3       56           4
     3       62           1
     3       74           4
     3       80           1
     3       84           0
     4        2           0
     4       19           0
     4       21           3
     4       22           4
     4       31           0
     4       37           2
     4       51           1
     4       53           3
     4       61           4
     4       78           2
     5        9           2
     5       21           3
     5       22           4
     5       35           4
     5       40           4
     5       63           4
     5       77           1
     5       89           4
     5       97           0
     5       98           4
     6       22           3
     6       49           4
     6       59           3
     6       72           2
     6       73           3
     6       79           4
     6       92           3
     6       95           4
     6       96           0
     6      100           1
     7        3           1
     7       24           1
     7       25           2
     7       30           2
     7       40           3
     7       51           0
     7       53           3
     7       66           3
     7       68           1
     7       87           4
     8       16           1
     8       33           3
     8       35           1
     8       46           0
     8       53           3
     8       60           4
     8       64           4
     8       71           0
     8       96           1
     8       97           2
     9        3           2
     9        4           1
     9        8           2
     9       29           0
     9       31           0
     9       48           1
     9       49           2
     9       80           1
     9       81           4
     9       96           1
    10        6           4
    10        7           2
    10       23           2
    10       34           0
    10       49           0
    10       60           4
    10       68           3
    10       77           2
    10       78           2
    10       92           3
    11        4           4
    11       20           2
    11       21           0
    11       22           3
    11       42           2
    11       51           2
    11       58           2
    11       59           2
    11       79           2
    11       85           3
    12       10           1
    12       24           4
    12       25           4
    12       26           0
    12       28           1
    12       31           2
    12       34           4
    12       67           1
    12       69           3
    12       74           1
    13        6           4
    13       24           0
    13       26           3
    13       39           4
    13       46           4
    13       50           1
    13       64           2
    13       70           1
    13       83           3
    13       97           1
    14       15           0
    14       18           2
    14       19           3
    14       36           2
    14       40           0
    14       63           0
    14       64           2
    14       80           2
    14       89           2
    14       95           2
    15        2           2
    15        6           0
    15        8           2
    15       25           4
    15       46           4
    15       48           0
    15       49           1
    15       58           2
    15       62           2
    15       93           2
    16       15           0
    16       18           2
    16       27           4
    16       52           0
    16       63           4
    16       65           2
    16       79           0
    16       84           4
    16       98           3
    16       99           4
    17        8           0
    17       12           4
    17       16           2
    17       17           2
    17       26           2
    17       42           1
    17       43           3
    17       67           3
    17       78           1
    17       97           0
    18       11           1
    18       27           1
    18       32           1
    18       48           0
    18       52           0
    18       60           3
    18       69           4
    18       78           4
    18       82           4
    18       93           3
    19        7           0
    19       12           0
    19       20           4
    19       37           4
    19       54           3
    19       59           0
    19       63           1
    19       68           4
    19       80           3
    19       90           1
    20        4           0
    20       16           2
    20       20           1
    20       25           4
    20       26           3
    20       40           0
    20       57           4
    20       64           3
    20       67           4
    20       85           0
    21        3           0
    21        7           3
    21       19           0
    21       23           2
    21       37           2
    21       60           4
    21       64           4
    21       67           3
    21       73           3
    21       90           3
    22        6           2
    22       17           4
    22       18           1
    22       24           2
    22       26           3
    22       43           2
    22       59           3
    22       61           4
    22       65           3
    22       96           1
    23        7           3
    23       11           4
    23       19           1
    23       20           1
    23       42           3
    23       53           0
    23       74           4
    23       92           2
    23       93           3
    23       99           4
    24        1           0
    24       12           4
    24       13           3
    24       21           4
    24       41           3
    24       44           4
    24       61           0
    24       64           1
    24       94           4
    24       99           2
    25        1           0
    25        7           3
    25       20           4
    25       32           1
    25       34           4
    25       46           4
    25       48           4
    25       50           4
    25       74           1
    25       79           0
    26       36           1
    26       46           0
    26       48           3
    26       52           1
    26       61           2
    26       62           1
    26       64           2
    26       71           2
    26       85           0
    26       92           2
    27       36           2
    27       43           4
    27       47           0
    27       64           0
    27       66           2
    27       68           1
    27       85           4
    27       90           3
    27       93           1
    27      100           2
    28        9           1
    28       16           2
    28       28           0
    28       44           4
    28       45           4
    28       60           0
    28       72           1
    28       86           4
    28       87           0
    28       96           0
    29       12           4
    29       36           3
    29       57           2
    29       75           2
    29       78           3
    29       80           0
    29       82           4
    29       90           0
    29       91           4
    29       93           1
    30        8           0
    30       13           3
    30       19           0
    30       21           3
    30       24           4
    30       26           1
    30       42           0
    30       53           2
    30       92           1
    30       95           4
    31       31           1
    31       35           2
    31       43           2
    31       47           3
    31       79           3
    31       81           3
    31       84           0
    31       93           0
    31       96           2
    31       98           0
    32       34           3
    32       43           0
    32       56           4
    32       61           3
    32       63           1
    32       65           4
    32       74           3
    32       82           1
    32       84           4
    32       98           3
    33        3           4
    33        6           4
    33       12           1
    33       19           2
    33       47           3
    33       51           4
    33       56           2
    33       74           3
    33       92           1
    33       98           1
    34        2           1
    34       14           3
    34       20           1
    34       38           3
    34       57           3
    34       68           4
    34       69           1
    34       70           1
    34       90           1
    34       91           4
    35        9           1
    35       10           3
    35       13           3
    35       21           3
    35       27           4
    35       44           4
    35       58           1
    35       62           4
    35       63           3
    35       89           4
    36       16           4
    36       26           0
    36       28           1
    36       41           1
    36       57           2
    36       60           3
    36       65           1
    36       70           2
    36       92           3
    36       99           2
    37        5           4
    37       13           0
    37       19           2
    37       31           2
    37       33           4
    37       60           3
    37       74           4
    37       81           1
    37       89           0
    37       98           1
    38        6           2
    38        7           3
    38       37           3
    38       52           4
    38       60           1
    38       65           0
    38       81           4
    38       82           2
    38       87           1
    38       93           0
    39       28           1
    39       35           3
    39       37           2
    39       40           2
    39       45           0
    39       56           0
    39       65           1
    39       72           4
    39       88           3
    39       94           3
    40        7           2
    40        8           2
    40       12           0
    40       27           1
    40       51           0
    40       56           1
    40       59           0
    40       64           0
    40       79           0
    40       90           0
    41        6           0
    41       19           2
    41       20           1
    41       35           2
    41       47           2
    41       48           1
    41       61           2
    41       64           0
    41       81           1
    41       95           1
    42        2           4
    42        6           3
    42        8           1
    42       22           3
    42       23           2
    42       30           4
    42       49           2
    42       81           3
    42       86           1
    42       96           0
    43        1           3
    43       23           1
    43       28           4
    43       60           2
    43       65           2
    43       66           3
    43       70           1
    43       74           4
    43       76           2
    43       89           3
    44        1           4
    44       10           4
    44       15           0
    44       39           4
    44       70           4
    44       76           0
    44       83           3
    44       87           3
    44       93           2
    44       99           2
    45        4           1
    45       21           0
    45       32           1
    45       36           0
    45       43           2
    45       47           4
    45       62           4
    45       72           4
    45       73           1
    45       97           3
    46       12           1
    46       13           4
    46       28           1
    46       34           0
    46       44           4
    46       62           4
    46       83           0
    46       85           1
    46       87           2
    46       90           2
    47       16           0
    47       28           3
    47       30           0
    47       38           3
    47       59           3
    47       69           1
    47       90           4
    47       96           4
    47       97           2
    47       99           4
    48       10           4
    48       19           3
    48       23           2
    48       34           1
    48       35           3
    48       41           1
    48       44           2
    48       73           3
    48       75           2
    48       77           1
    49        4           1
    49       17           4
    49       25           1
    49       31           2
    49       34           1
    49       47           1
    49       54           2
    49       68           4
    49       72           4
    49       90           0
    50        1           4
    50        3           2
    50        7           2
    50       11           2
    50       36           2
    50       48           4
    50       56           0
    50       57           0
    50       66           0
    50       71           1
    51        2           1
    51       22           0
    51       35           4
    51       38           2
    51       46           2
    51       52           1
    51       67           1
    51       84           0
    51       97           3
    51       98           4
    52        7           3
    52       24           1
    52       34           2
    52       45           3
    52       75           3
    52       77           4
    52       84           1
    52       87           1
    52       88           3
    52       93           4
    53        7           4
    53       10           4
    53       16           0
    53       37           3
    53       39           3
    53       42           4
    53       52           2
    53       60           1
    53       75           3
    53       93           0
    54       14           2
    54       16           2
    54       24           2
    54       25           1
    54       26           0
    54       34           0
    54       49           2
    54       53           3
    54       70           2
    54       90           1
    55        7           2
    55       11           1
    55       28           1
    55       30           2
    55       33           3
    55       34           2
    55       36           3
    55       46           1
    55       59           3
    55       85           1
    56       11           2
    56       17           1
    56       34           1
    56       54           2
    56       70           2
    56       77           2
    56       84           4
    56       88           3
    56       89           2
    56       91           0
    57       14           3
    57       37           3
    57       42           0
    57       48           0
    57       55           3
    57       56           0
    57       70           1
    57       76           1
    57       82           3
    57       86           3
    58        3           3
    58        7           0
    58        9           2
    58       19           3
    58       25           0
    58       54           3
    58       63           4
    58       66           2
    58       89           4
    58       97           3
    59       13           3
    59       17           1
    59       19           4
    59       29           3
    59       35           1
    59       62           2
    59       69           1
    59       75           4
    59       85           3
    59       94           2
    60       14           3
    60       23           2
    60       28           4
    60       30           2
    60       31           1
    60       34           0
    60       48           0
    60       69           1
    60       73           2
    60       78           2
    61        5           2
    61        8           3
    61       14           1
    61       47           1
    61       54           2
    61       64           0
    61       71           1
    61       72           0
    61       77           4
    61       97           1
    62        3           4
    62        6           3
    62       15           0
    62       17           2
    62       24           1
    62       35           4
    62       52           1
    62       72           1
    62       77           2
    62       80           2
    63        1           4
    63        8           3
    63       20           0
    63       33           0
    63       47           4
    63       57           0
    63       64           1
    63       90           1
    63       94           3
    63       95           2
    64       11           0
    64       52           0
    64       59           1
    64       61           0
    64       69           4
    64       70           0
    64       84           3
    64       88           1
    64       90           3
    64       92           4
    65        3           2
    65       15           4
    65       22           3
    65       33           4
    65       38           4
    65       52           0
    65       55           0
    65       57           1
    65       74           1
    65       95           3
    66        7           4
    66       11           2
    66       15           2
    66       44           4
    66       45           4
    66       48           2
    66       49           2
    66       55           0
    66       66           4
    66       83           0
    67       10           2
    67       14           1
    67       24           4
    67       27           2
    67       45           4
    67       56           0
    67       59           1
    67       61           0
    67       70           1
    67       90           3
    68        7           1
    68       28           3
    68       30           0
    68       47           1
    68       55           4
    68       67           2
    68       69           0
    68       75           0
    68       92           4
    68       95           0
    69        1           2
    69       24           0
    69       31           4
    69       66           2
    69       69           1
    69       76           4
    69       80           0
    69       91           4
    69       92           1
    69       99           2
    70        2           2
    70        7           4
    70       16           0
    70       23           0
    70       43           2
    70       50           0
    70       64           4
    70       69           3
    70       75           0
    70       98           1
    71        9           3
    71       13           2
    71       14           3
    71       24           0
    71       31           0
    71       41           2
    71       51           0
    71       81           2
    71       88           3
    71       91           2
    72        4           4
    72        6           0
    72       18           0
    72       20           2
    72       38           1
    72       47           1
    72       69           1
    72       76           2
    72       82           4
    72       86           3
    73        9           1
    73       11           0
    73       28           1
    73       41           4
    73       51           3
    73       56           2
    73       76           4
    73       93           3
    73       97           2
    73       99           2
    74       10           1
    74       12           3
    74       24           1
    74       30           4
    74       44           1
    74       48           2
    74       57           1
    74       68           2
    74       83           4
    74       85           0
    75       11           2
    75       16           1
    75       44           2
    75       49           0
    75       51           1
    75       64           4
    75       71           0
    75       72           4
    75       82           2
    75       85           3
    76        4           1
    76       10           4
    76       11           2
    76       19           0
    76       27           2
    76       61           0
    76       70           4
    76       80           4
    76       89           3
    76       90           2
    77       21           1
    77       32           0
    77       36           1
    77       56           2
    77       61           4
    77       65           2
    77       81           1
    77       83           1
    77       93           0
    77       94           3
    78       19           3
    78       27           1
    78       42           0
    78       51           4
    78       72           3
    78       75           3
    78       79           4
    78       86           4
    78       90           2
    78       98           2
    79        6           2
    79       16           4
    79       24           4
    79       40           4
    79       51           3
    79       65           1
    79       69           0
    79       88           0
    79       92           3
    79       98           0
    80       12           1
    80       19           1
    80       24           1
    80       31           1
    80       42           4
    80       65           3
    80       72           4
    80       79           2
    80       80           4
    80       94           2
    81        6           0
    81       11           2
    81       16           0
    81       41           2
    81       48           3
    81       52           3
    81       73           2
    81       74           1
    81       94           1
    81       95           3
    82       15           2
    82       22           4
    82       33           1
    82       36           0
    82       44           1
    82       67           0
    82       76           1
    82       87           3
    82       89           2
    82       96           1
    83       16           3
    83       22           3
    83       37           4
    83       47           3
    83       48           4
    83       50           4
    83       61           4
    83       81           0
    83       95           4
    83       98           1
    84        4           4
    84        5           3
    84        8           4
    84       19           3
    84       20           4
    84       41           2
    84       54           2
    84       62           1
    84       83           1
    84      100           4
    85        6           4
    85        9           4
    85       20           0
    85       37           1
    85       46           4
    85       57           4
    85       75           1
    85       81           0
    85       89           1
    85       98           2
    86       30           0
    86       44           0
    86       49           2
    86       50           3
    86       55           4
    86       63           3
    86       73           0
    86       75           0
    86       90           0
    86       91           4
    87       13           1
    87       40           3
    87       43           3
    87       51           2
    87       69           3
    87       77           0
    87       82           3
    87       90           3
    87       95           0
    87      100           0
    88        7           2
    88        8           3
    88       25           2
    88       58           0
    88       61           4
    88       62           0
    88       81           2
    88       82           3
    88       95           2
    88       96           1
    89        1           1
    89        2           2
    89        5           3
    89        7           4
    89       13           0
    89       42           1
    89       63           0
    89       68           4
    89       82           2
    89       92           3
    90        9           0
    90       17           2
    90       24           1
    90       27           2
    90       28           0
    90       29           1
    90       38           2
    90       42           3
    90       48           3
    90       62           1
    91        4           1
    91        5           3
    91       15           2
    91       25           4
    91       29           4
    91       55           3
    91       65           4
    91       71           1
    91       94           4
    91       99           2
    92       16           2
    92       18           1
    92       25           4
    92       38           2
    92       46           0
    92       49           3
    92       63           4
    92       64           1
    92       80           2
    92       98           1
    93        2           0
    93        7           4
    93       10           1
    93       19           1
    93       21           0
    93       39           4
    93       68           2
    93       79           4
    93       82           4
    93       92           4
    94        5           1
    94       10           0
    94       21           0
    94       29           4
    94       38           2
    94       39           2
    94       50           2
    94       78           3
    94       89           2
    94       91           3
    95        4           2
    95       12           3
    95       15           1
    95       23           4
    95       24           3
    95       34           4
    95       44           0
    95       64           4
    95       84           0
    95      100           4
    96       28           0
    96       36           4
    96       38           0
    96       46           4
    96       51           4
    96       58           3
    96       60           4
    96       62           4
    96       75           1
    96       83           4
    97       11           1
    97       22           0
    97       45           2
    97       58           3
    97       62           1
    97       67           1
    97       78           4
    97       81           2
    97       84           0
    97       99           0
    98        3           1
    98        4           3
    98       33           0
    98       35           2
    98       43           3
    98       51           1
    98       53           2
    98       88           3
    98       92           1
    98       93           3
    99       16           1
    99       19           0
    99       25           4
    99       32           4
    99       34           2
    99       35           1
    99       53           2
    99       56           0
    99       75           2
    99      100           0
   100        8           4
   100       13           4
   100       14           3
   100       29           1
   100       47           0
   100       74           0
   100       76           0
   100       81           2
   100       95           3
   100       98           2
